4030 8633
9750 9286
442 4579
1462 5807
6500 3549
6780 1138
5339 1607
9312 2510
8239 6658
878 4337
5996 1358
7805 3561
2703 5422
1624 6543
8542 83
7918 1525
8319 4694
211 3943
5671 6360
9697 4477
9558 4593
5181 4772
5729 3012
4369 3036
8282 858
6642 3360
3914 4133
5933 3083
7145 6678
1043 2972
5248 2702
7789 1849
9260 2925
7215 570
5682 3168
8435 2845
8774 5313
3953 7755
2230 6833
8089 4737
1963 5507
7379 7286
6496 1844
8863 4585
7830 3369
6815 6649
6101 8185
1170 3396
2333 5021
7544 4305
